SYSTEM = BaZrO3 Band
ENCUT  = 600
EDIFF  = 1E-8

ICHARG = 11

ISMEAR = 0
SIGMA  = 0.05

PREC   = Accurate
LREAL  = .FALSE.
LASPH  = .TRUE.

NSW = 0
IBRION = -1

LORBIT = 11

LWAVE  = .FALSE.
LCHARG = .FALSE.

