BaZrO3 band structure
40
Line-mode
Reciprocal
0.000 0.000 0.000  !Gamma
0.500 0.000 0.000  !X
0.500 0.000 0.000  !X
0.500 0.500 0.000  !M
0.500 0.500 0.000  !M
0.000 0.000 0.000  !Gamma
0.000 0.000 0.000  !Gamma
0.500 0.500 0.500  !R
0.500 0.500 0.500  !R
0.500 0.000 0.000  !X

