SYSTEM = BaZrO3 SCF
ENCUT = 600
EDIFF = 1E-7
EDIFFG = -0.01

ISMEAR = 0
SIGMA = 0.05

IBRION = 2
ISIF = 3
NSW = 50

PREC = Accurate
GGA = PE
LASPH = .TRUE.
LREAL = Auto

LWAVE = .TRUE.
LCHARG = .TRUE.

